50
    13    38    99    60    88    76    41    18    27    60    48    66    22   100     7    73    80    49    69    98    24    99    52    92    92    83    41    95    38    74    85    39    31    87    98    45    58    76    62    27    19    36    22    86    30     5    91    18    23    57
     2     3     4     4     9     8     2     8     2     4    10     4     1     5     7    10     3     2     2     3     6     2     4     6     6     3     1     8     1     5    10     8     6    10    10    10    10     3     8     7     6    10     1     6     1     2     5     5    10     8
     0    88     0   211     0   308     0     0     0     0     0     0   156   410     0   425     0   150     0   524    44   418   535   283   326   150     0     0     0   501   190   263   142   157   450    66     0   231     0     0     0     0     0   116   387     0    82     0   259    63
